20	20	19	4	7	9	13	18	16	7
11	16	14	12	12	1	13	6	5	18
19	3	16	5	12	19	2	15	11	9
13	16	4	6	20	3	6	1	12	19
17	12	8	4	15	5	18	5	2	18
9	6	9	13	14	14	4	18	18	13
20	5	9	2	17	11	16	1	7	15
2	15	14	1	7	11	8	2	3	6
9	11	14	9	15	10	13	9	9	4
6	1	10	15	7	12	14	20	8	18
10	8	4	4	8	20	4	13	10	9
1	5	12	11	3	20	5	6	14	3
17	9	13	11	19	6	13	7	7	7
12	1	20	19	12	10	19	9	17	14
10	4	9	15	14	8	4	3	1	19
13	17	6	9	12	18	8	19	14	8
8	7	7	19	5	14	14	15	20	1
17	8	10	9	8	15	19	12	17	17
8	18	15	12	16	8	19	6	16	9
